
GUB cover cuts applied:  4
Clique cuts applied:  3
Cover cuts applied:  22
Implied bound cuts applied:  315
Flow cuts applied:  1
Mixed integer rounding cuts applied:  48
Zero-half cuts applied:  28
Multi commodity flow cuts applied:  1
Gomory fractional cuts applied:  2

Root node processing (before b&c):
  Real time             =    0.28 sec. (168.88 ticks)
Parallel b&c, 4 threads:
  Real time             =    0.28 sec. (269.18 ticks)
  Sync time (average)   =    0.02 sec.
  Wait time (average)   =    0.00 sec.
                          ------------
Total (root+branch&cut) =    0.56 sec. (438.05 ticks)
Version identifier: 12.10.0.0 | 2019-11-26 | 843d4de
CPXPARAM_MIP_Interval                            10
CPXPARAM_MIP_Tolerances_AbsMIPGap                0.98999999999999999
Tried aggregator 2 times.
MIP Presolve eliminated 4018 rows and 1930 columns.
MIP Presolve added 4 rows and 0 columns.
MIP Presolve modified 148 coefficients.
Aggregator did 11 substitutions.
Reduced MIP has 1949 rows, 218 columns, and 4229 nonzeros.
Reduced MIP has 174 binaries, 44 generals, 0 SOSs, and 0 indicators.
Presolve time = 0.01 sec. (6.64 ticks)
Probing fixed 0 vars, tightened 6 bounds.
Probing time = 0.00 sec. (0.80 ticks)
Cover probing fixed 0 vars, tightened 33 bounds.
Tried aggregator 1 time.
Detecting symmetries...
MIP Presolve eliminated 1545 rows and 0 columns.
MIP Presolve modified 21 coefficients.
Reduced MIP has 404 rows, 218 columns, and 1139 nonzeros.
Reduced MIP has 174 binaries, 44 generals, 0 SOSs, and 0 indicators.
Presolve time = 0.00 sec. (1.57 ticks)
Probing fixed 0 vars, tightened 7 bounds.
Probing time = 0.00 sec. (0.23 ticks)
Cover probing fixed 0 vars, tightened 29 bounds.
Clique table members: 274.
MIP emphasis: balance optimality and feasibility.
MIP search method: dynamic search.
Parallel mode: deterministic, using up to 4 threads.
Root relaxation solution time = 0.00 sec. (1.49 ticks)

        Nodes                                         Cuts/
   Node  Left     Objective  IInf  Best Integer    Best Bound    ItCnt     Gap

      0     0       29.0000    82                     29.0000      177         
      0     0       28.9167    82                    Cuts: 53      249         
      0     0       28.8333    82                   Cuts: 113      402         
      0     0       28.7778    82                    Cuts: 54      488         
      0     0       28.7778    82                    Cuts: 77      537         
      0     0       28.7778    82                    Cuts: 97      690         
Detecting symmetries...
      0     0       28.7778    82                    Cuts: 11      776         
      0     0       28.7743    82                    Cuts: 57      820         
      0     0       28.7719    82                    Cuts: 70      885         
      0     0       28.7661    82                    Cuts: 64      928         
      0     0       28.7617    82                    Cuts: 43      983         
      0     0       28.7608    82                    Cuts: 54     1030         
*     0+    0                           27.0000       28.7608             6.52%
Detecting symmetries...
      0     2       28.7608   149       27.0000       28.5833     1030    5.86%
Elapsed time = 0.25 sec. (161.96 ticks, tree = 0.02 MB, solutions = 1)
     10     9       28.4444    84       27.0000       28.5833     1372    5.86%
     20    19       28.0598   121       27.0000       28.5833     2216    5.86%
     30    20        cutoff             27.0000       28.5833     2620    5.86%
     40    19        cutoff             27.0000       28.5833     3321    5.86%
     50    21       28.1463   133       27.0000       28.5833     4004    5.86%
     60    24       28.5509   117       27.0000       28.5833     4137    5.86%
     70    28       28.2040   117       27.0000       28.5833     4570    5.86%
     80    31       28.2820   137       27.0000       28.5833     5214    5.86%
     90    32       28.4630   144       27.0000       28.5476     5463    5.73%
    100    34       28.3073   134       27.0000       28.5476     5536    5.73%
Elapsed time = 0.29 sec. (194.14 ticks, tree = 0.02 MB, solutions = 1)
    110    42       28.0000   114       27.0000       28.5476     6351    5.73%
    120    37        cutoff             27.0000       28.5278     6361    5.66%
    130    43       28.2593    87       27.0000       28.5278     6544    5.66%
    140    42        cutoff             27.0000       28.5278     6653    5.66%
    150    42       28.1667    41       27.0000       28.5185     7589    5.62%
    160    36        cutoff             27.0000       28.5185     7428    5.62%
    170    39       28.1481   106       27.0000       28.4630     7274    5.42%
    180    37        cutoff             27.0000       28.4444     8764    5.35%
    190    34       28.1979   120       27.0000       28.4444     9142    5.35%
    200    43        cutoff             27.0000       28.4444     8233    5.35%
Elapsed time = 0.32 sec. (216.33 ticks, tree = 0.04 MB, solutions = 1)
    210    30        cutoff             27.0000       28.4444     9230    5.35%
    220    29        cutoff             27.0000       28.4444     9440    5.35%
    230    13        cutoff             27.0000       28.3889    10281    5.14%
    240     9       28.1830   104       27.0000       28.3889    10688    5.14%
    250    12        cutoff             27.0000       28.3889    10550    5.14%
the number of Nodes = 255
